p cnf 11 22
-11 10 -9 0
-11 10 8 0
-11 -10 2 0
-11 -9 -1 0
11 -8 -7 0
11 -8 5 0
-11 -7 6 0
-11 -7 1 0
-11 -5 -2 0
-10 -9 -8 0
10 9 -6 0
10 -6 -3 0
-10 -4 3 0
9 -8 -3 0
-9 -6 2 0
-9 -5 2 0
-8 6 -5 0
-8 5 1 0
-7 6 -5 0
7 6 3 0
7 3 -2 0
6 5 -3 0
